p cnf 828 2564
-1 3 51 0
1 3 -51 0
-1 -3 -51 0
1 -3 51 0
7 8 52 0
-7 8 -52 0
7 -8 -52 0
-7 -8 52 0
-10 -13 53 0
10 -13 -53 0
-10 13 -53 0
10 13 53 0
15 -16 54 0
-15 -16 -54 0
15 16 -54 0
-15 16 54 0
-18 -19 55 0
18 -19 -55 0
-18 19 -55 0
18 19 55 0
22 27 56 0
-22 27 -56 0
22 -27 -56 0
-22 -27 56 0
-30 31 57 0
30 31 -57 0
-30 -31 -57 0
30 -31 57 0
34 36 58 0
-34 36 -58 0
34 -36 -58 0
-34 -36 58 0
-37 38 59 0
37 38 -59 0
-37 -38 -59 0
37 -38 59 0
40 41 60 0
-40 41 -60 0
40 -41 -60 0
-40 -41 60 0
43 45 61 0
-43 45 -61 0
43 -45 -61 0
-43 -45 61 0
46 48 62 0
-46 48 -62 0
46 -48 -62 0
-46 -48 62 0
51 -52 63 0
-51 -52 -63 0
51 52 -63 0
-51 52 63 0
53 -54 64 0
-53 -54 -64 0
53 54 -64 0
-53 54 64 0
55 -56 65 0
-55 -56 -65 0
55 56 -65 0
-55 56 65 0
57 -58 66 0
-57 -58 -66 0
57 58 -66 0
-57 58 66 0
59 -60 67 0
-59 -60 -67 0
59 60 -67 0
-59 60 67 0
61 -62 68 0
-61 -62 -68 0
61 62 -68 0
-61 62 68 0
63 -64 69 0
-63 -64 -69 0
63 64 -69 0
-63 64 69 0
65 -66 70 0
-65 -66 -70 0
65 66 -70 0
-65 66 70 0
67 -68 71 0
-67 -68 -71 0
67 68 -71 0
-67 68 71 0
-69 -70 71 0
69 -70 -71 0
-69 70 -71 0
69 70 71 0
1 2 72 0
-1 2 -72 0
1 -2 -72 0
-1 -2 72 0
-3 -7 73 0
3 -7 -73 0
-3 7 -73 0
3 7 73 0
-8 -10 74 0
8 -10 -74 0
-8 10 -74 0
8 10 74 0
14 -15 75 0
-14 -15 -75 0
14 15 -75 0
-14 15 75 0
16 18 76 0
-16 18 -76 0
16 -18 -76 0
-16 -18 76 0
-19 22 77 0
19 22 -77 0
-19 -22 -77 0
19 -22 77 0
-23 -28 78 0
23 -28 -78 0
-23 28 -78 0
23 28 78 0
32 -39 79 0
-32 -39 -79 0
32 39 -79 0
-32 39 79 0
41 44 80 0
-41 44 -80 0
41 -44 -80 0
-41 -44 80 0
-46 48 81 0
46 48 -81 0
-46 -48 -81 0
46 -48 81 0
-49 50 82 0
49 50 -82 0
-49 -50 -82 0
49 -50 82 0
72 -73 83 0
-72 -73 -83 0
72 73 -83 0
-72 73 83 0
74 -75 84 0
-74 -75 -84 0
74 75 -84 0
-74 75 84 0
76 -77 85 0
-76 -77 -85 0
76 77 -85 0
-76 77 85 0
78 -79 86 0
-78 -79 -86 0
78 79 -86 0
-78 79 86 0
80 -81 87 0
-80 -81 -87 0
80 81 -87 0
-80 81 87 0
82 -83 88 0
-82 -83 -88 0
82 83 -88 0
-82 83 88 0
84 -85 89 0
-84 -85 -89 0
84 85 -89 0
-84 85 89 0
86 -87 90 0
-86 -87 -90 0
86 87 -90 0
-86 87 90 0
-88 -89 90 0
88 -89 -90 0
-88 89 -90 0
88 89 90 0
2 -4 91 0
-2 -4 -91 0
2 4 -91 0
-2 4 91 0
-7 9 92 0
7 9 -92 0
-7 -9 -92 0
7 -9 92 0
11 -14 93 0
-11 -14 -93 0
11 14 -93 0
-11 14 93 0
16 18 94 0
-16 18 -94 0
16 -18 -94 0
-16 -18 94 0
-21 22 95 0
21 22 -95 0
-21 -22 -95 0
21 -22 95 0
-28 -33 96 0
28 -33 -96 0
-28 33 -96 0
28 33 96 0
-34 -36 97 0
34 -36 -97 0
-34 36 -97 0
34 36 97 0
-37 -41 98 0
37 -41 -98 0
-37 41 -98 0
37 41 98 0
90 -91 99 0
-90 -91 -99 0
90 91 -99 0
-90 91 99 0
92 -93 100 0
-92 -93 -100 0
92 93 -100 0
-92 93 100 0
94 -95 101 0
-94 -95 -101 0
94 95 -101 0
-94 95 101 0
96 -97 102 0
-96 -97 -102 0
96 97 -102 0
-96 97 102 0
98 -99 103 0
-98 -99 -103 0
98 99 -103 0
-98 99 103 0
100 -101 104 0
-100 -101 -104 0
100 101 -104 0
-100 101 104 0
-102 -103 104 0
102 -103 -104 0
-102 103 -104 0
102 103 104 0
1 2 105 0
-1 2 -105 0
1 -2 -105 0
-1 -2 105 0
3 5 106 0
-3 5 -106 0
3 -5 -106 0
-3 -5 106 0
-6 -7 107 0
6 -7 -107 0
-6 7 -107 0
6 7 107 0
8 9 108 0
-8 9 -108 0
8 -9 -108 0
-8 -9 108 0
10 -13 109 0
-10 -13 -109 0
10 13 -109 0
-10 13 109 0
14 15 110 0
-14 15 -110 0
14 -15 -110 0
-14 -15 110 0
-16 -17 111 0
16 -17 -111 0
-16 17 -111 0
16 17 111 0
18 20 112 0
-18 20 -112 0
18 -20 -112 0
-18 -20 112 0
24 -25 113 0
-24 -25 -113 0
24 25 -113 0
-24 25 113 0
27 -28 114 0
-27 -28 -114 0
27 28 -114 0
-27 28 114 0
-32 33 115 0
32 33 -115 0
-32 -33 -115 0
32 -33 115 0
35 37 116 0
-35 37 -116 0
35 -37 -116 0
-35 -37 116 0
39 -41 117 0
-39 -41 -117 0
39 41 -117 0
-39 41 117 0
43 -45 118 0
-43 -45 -118 0
43 45 -118 0
-43 45 118 0
104 -105 119 0
-104 -105 -119 0
104 105 -119 0
-104 105 119 0
106 -107 120 0
-106 -107 -120 0
106 107 -120 0
-106 107 120 0
108 -109 121 0
-108 -109 -121 0
108 109 -121 0
-108 109 121 0
110 -111 122 0
-110 -111 -122 0
110 111 -122 0
-110 111 122 0
112 -113 123 0
-112 -113 -123 0
112 113 -123 0
-112 113 123 0
114 -115 124 0
-114 -115 -124 0
114 115 -124 0
-114 115 124 0
116 -117 125 0
-116 -117 -125 0
116 117 -125 0
-116 117 125 0
118 -119 126 0
-118 -119 -126 0
118 119 -126 0
-118 119 126 0
120 -121 127 0
-120 -121 -127 0
120 121 -127 0
-120 121 127 0
122 -123 128 0
-122 -123 -128 0
122 123 -128 0
-122 123 128 0
124 -125 129 0
-124 -125 -129 0
124 125 -129 0
-124 125 129 0
126 -127 130 0
-126 -127 -130 0
126 127 -130 0
-126 127 130 0
128 -129 131 0
-128 -129 -131 0
128 129 -131 0
-128 129 131 0
130 131 0
-130 -131 0
-1 2 132 0
1 2 -132 0
-1 -2 -132 0
1 -2 132 0
6 -9 133 0
-6 -9 -133 0
6 9 -133 0
-6 9 133 0
-11 -12 134 0
11 -12 -134 0
-11 12 -134 0
11 12 134 0
-13 15 135 0
13 15 -135 0
-13 -15 -135 0
13 -15 135 0
17 19 136 0
-17 19 -136 0
17 -19 -136 0
-17 -19 136 0
20 22 137 0
-20 22 -137 0
20 -22 -137 0
-20 -22 137 0
-23 -26 138 0
23 -26 -138 0
-23 26 -138 0
23 26 138 0
-27 -28 139 0
27 -28 -139 0
-27 28 -139 0
27 28 139 0
31 33 140 0
-31 33 -140 0
31 -33 -140 0
-31 -33 140 0
37 38 141 0
-37 38 -141 0
37 -38 -141 0
-37 -38 141 0
39 40 142 0
-39 40 -142 0
39 -40 -142 0
-39 -40 142 0
42 44 143 0
-42 44 -143 0
42 -44 -143 0
-42 -44 143 0
-45 49 144 0
45 49 -144 0
-45 -49 -144 0
45 -49 144 0
131 -132 145 0
-131 -132 -145 0
131 132 -145 0
-131 132 145 0
133 -134 146 0
-133 -134 -146 0
133 134 -146 0
-133 134 146 0
135 -136 147 0
-135 -136 -147 0
135 136 -147 0
-135 136 147 0
137 -138 148 0
-137 -138 -148 0
137 138 -148 0
-137 138 148 0
139 -140 149 0
-139 -140 -149 0
139 140 -149 0
-139 140 149 0
141 -142 150 0
-141 -142 -150 0
141 142 -150 0
-141 142 150 0
143 -144 151 0
-143 -144 -151 0
143 144 -151 0
-143 144 151 0
145 -146 152 0
-145 -146 -152 0
145 146 -152 0
-145 146 152 0
147 -148 153 0
-147 -148 -153 0
147 148 -153 0
-147 148 153 0
149 -150 154 0
-149 -150 -154 0
149 150 -154 0
-149 150 154 0
151 -152 155 0
-151 -152 -155 0
151 152 -155 0
-151 152 155 0
153 -154 156 0
-153 -154 -156 0
153 154 -156 0
-153 154 156 0
155 156 0
-155 -156 0
2 4 157 0
-2 4 -157 0
2 -4 -157 0
-2 -4 157 0
5 8 158 0
-5 8 -158 0
5 -8 -158 0
-5 -8 158 0
-9 -11 159 0
9 -11 -159 0
-9 11 -159 0
9 11 159 0
14 15 160 0
-14 15 -160 0
14 -15 -160 0
-14 -15 160 0
-16 17 161 0
16 17 -161 0
-16 -17 -161 0
16 -17 161 0
-19 20 162 0
19 20 -162 0
-19 -20 -162 0
19 -20 162 0
-22 23 163 0
22 23 -163 0
-22 -23 -163 0
22 -23 163 0
-24 -32 164 0
24 -32 -164 0
-24 32 -164 0
24 32 164 0
34 -41 165 0
-34 -41 -165 0
34 41 -165 0
-34 41 165 0
44 -46 166 0
-44 -46 -166 0
44 46 -166 0
-44 46 166 0
156 -157 167 0
-156 -157 -167 0
156 157 -167 0
-156 157 167 0
158 -159 168 0
-158 -159 -168 0
158 159 -168 0
-158 159 168 0
160 -161 169 0
-160 -161 -169 0
160 161 -169 0
-160 161 169 0
162 -163 170 0
-162 -163 -170 0
162 163 -170 0
-162 163 170 0
164 -165 171 0
-164 -165 -171 0
164 165 -171 0
-164 165 171 0
166 -167 172 0
-166 -167 -172 0
166 167 -172 0
-166 167 172 0
168 -169 173 0
-168 -169 -173 0
168 169 -173 0
-168 169 173 0
170 -171 174 0
-170 -171 -174 0
170 171 -174 0
-170 171 174 0
-172 -173 174 0
172 -173 -174 0
-172 173 -174 0
172 173 174 0
1 -3 175 0
-1 -3 -175 0
1 3 -175 0
-1 3 175 0
4 9 176 0
-4 9 -176 0
4 -9 -176 0
-4 -9 176 0
-10 -12 177 0
10 -12 -177 0
-10 12 -177 0
10 12 177 0
15 -17 178 0
-15 -17 -178 0
15 17 -178 0
-15 17 178 0
18 19 179 0
-18 19 -179 0
18 -19 -179 0
-18 -19 179 0
-23 24 180 0
23 24 -180 0
-23 -24 -180 0
23 -24 180 0
25 -26 181 0
-25 -26 -181 0
25 26 -181 0
-25 26 181 0
-27 -33 182 0
27 -33 -182 0
-27 33 -182 0
27 33 182 0
34 36 183 0
-34 36 -183 0
34 -36 -183 0
-34 -36 183 0
38 -39 184 0
-38 -39 -184 0
38 39 -184 0
-38 39 184 0
42 47 185 0
-42 47 -185 0
42 -47 -185 0
-42 -47 185 0
-48 -50 186 0
48 -50 -186 0
-48 50 -186 0
48 50 186 0
175 -176 187 0
-175 -176 -187 0
175 176 -187 0
-175 176 187 0
177 -178 188 0
-177 -178 -188 0
177 178 -188 0
-177 178 188 0
179 -180 189 0
-179 -180 -189 0
179 180 -189 0
-179 180 189 0
181 -182 190 0
-181 -182 -190 0
181 182 -190 0
-181 182 190 0
183 -184 191 0
-183 -184 -191 0
183 184 -191 0
-183 184 191 0
185 -186 192 0
-185 -186 -192 0
185 186 -192 0
-185 186 192 0
187 -188 193 0
-187 -188 -193 0
187 188 -193 0
-187 188 193 0
189 -190 194 0
-189 -190 -194 0
189 190 -194 0
-189 190 194 0
191 -192 195 0
-191 -192 -195 0
191 192 -195 0
-191 192 195 0
-193 -194 195 0
193 -194 -195 0
-193 194 -195 0
193 194 195 0
-2 -3 196 0
2 -3 -196 0
-2 3 -196 0
2 3 196 0
-5 -6 197 0
5 -6 -197 0
-5 6 -197 0
5 6 197 0
7 8 198 0
-7 8 -198 0
7 -8 -198 0
-7 -8 198 0
9 -12 199 0
-9 -12 -199 0
9 12 -199 0
-9 12 199 0
-17 -19 200 0
17 -19 -200 0
-17 19 -200 0
17 19 200 0
-20 23 201 0
20 23 -201 0
-20 -23 -201 0
20 -23 201 0
27 -28 202 0
-27 -28 -202 0
27 28 -202 0
-27 28 202 0
-29 32 203 0
29 32 -203 0
-29 -32 -203 0
29 -32 203 0
33 34 204 0
-33 34 -204 0
33 -34 -204 0
-33 -34 204 0
36 37 205 0
-36 37 -205 0
36 -37 -205 0
-36 -37 205 0
38 39 206 0
-38 39 -206 0
38 -39 -206 0
-38 -39 206 0
40 42 207 0
-40 42 -207 0
40 -42 -207 0
-40 -42 207 0
-43 45 208 0
43 45 -208 0
-43 -45 -208 0
43 -45 208 0
195 -196 209 0
-195 -196 -209 0
195 196 -209 0
-195 196 209 0
197 -198 210 0
-197 -198 -210 0
197 198 -210 0
-197 198 210 0
199 -200 211 0
-199 -200 -211 0
199 200 -211 0
-199 200 211 0
201 -202 212 0
-201 -202 -212 0
201 202 -212 0
-201 202 212 0
203 -204 213 0
-203 -204 -213 0
203 204 -213 0
-203 204 213 0
205 -206 214 0
-205 -206 -214 0
205 206 -214 0
-205 206 214 0
207 -208 215 0
-207 -208 -215 0
207 208 -215 0
-207 208 215 0
209 -210 216 0
-209 -210 -216 0
209 210 -216 0
-209 210 216 0
211 -212 217 0
-211 -212 -217 0
211 212 -217 0
-211 212 217 0
213 -214 218 0
-213 -214 -218 0
213 214 -218 0
-213 214 218 0
215 -216 219 0
-215 -216 -219 0
215 216 -219 0
-215 216 219 0
217 -218 220 0
-217 -218 -220 0
217 218 -220 0
-217 218 220 0
219 220 0
-219 -220 0
4 5 221 0
-4 5 -221 0
4 -5 -221 0
-4 -5 221 0
7 9 222 0
-7 9 -222 0
7 -9 -222 0
-7 -9 222 0
-10 -13 223 0
10 -13 -223 0
-10 13 -223 0
10 13 223 0
16 17 224 0
-16 17 -224 0
16 -17 -224 0
-16 -17 224 0
-18 20 225 0
18 20 -225 0
-18 -20 -225 0
18 -20 225 0
-22 23 226 0
22 23 -226 0
-22 -23 -226 0
22 -23 226 0
-24 25 227 0
24 25 -227 0
-24 -25 -227 0
24 -25 227 0
27 29 228 0
-27 29 -228 0
27 -29 -228 0
-27 -29 228 0
-32 34 229 0
32 34 -229 0
-32 -34 -229 0
32 -34 229 0
-35 -37 230 0
35 -37 -230 0
-35 37 -230 0
35 37 230 0
43 -46 231 0
-43 -46 -231 0
43 46 -231 0
-43 46 231 0
-47 49 232 0
47 49 -232 0
-47 -49 -232 0
47 -49 232 0
220 -221 233 0
-220 -221 -233 0
220 221 -233 0
-220 221 233 0
222 -223 234 0
-222 -223 -234 0
222 223 -234 0
-222 223 234 0
224 -225 235 0
-224 -225 -235 0
224 225 -235 0
-224 225 235 0
226 -227 236 0
-226 -227 -236 0
226 227 -236 0
-226 227 236 0
228 -229 237 0
-228 -229 -237 0
228 229 -237 0
-228 229 237 0
230 -231 238 0
-230 -231 -238 0
230 231 -238 0
-230 231 238 0
232 -233 239 0
-232 -233 -239 0
232 233 -239 0
-232 233 239 0
234 -235 240 0
-234 -235 -240 0
234 235 -240 0
-234 235 240 0
236 -237 241 0
-236 -237 -241 0
236 237 -241 0
-236 237 241 0
238 -239 242 0
-238 -239 -242 0
238 239 -242 0
-238 239 242 0
240 -241 243 0
-240 -241 -243 0
240 241 -243 0
-240 241 243 0
242 243 0
-242 -243 0
5 -7 244 0
-5 -7 -244 0
5 7 -244 0
-5 7 244 0
-8 10 245 0
8 10 -245 0
-8 -10 -245 0
8 -10 245 0
11 13 246 0
-11 13 -246 0
11 -13 -246 0
-11 -13 246 0
16 -19 247 0
-16 -19 -247 0
16 19 -247 0
-16 19 247 0
-20 22 248 0
20 22 -248 0
-20 -22 -248 0
20 -22 248 0
-24 25 249 0
24 25 -249 0
-24 -25 -249 0
24 -25 249 0
28 29 250 0
-28 29 -250 0
28 -29 -250 0
-28 -29 250 0
30 32 251 0
-30 32 -251 0
30 -32 -251 0
-30 -32 251 0
-35 -37 252 0
35 -37 -252 0
-35 37 -252 0
35 37 252 0
-39 40 253 0
39 40 -253 0
-39 -40 -253 0
39 -40 253 0
41 -42 254 0
-41 -42 -254 0
41 42 -254 0
-41 42 254 0
-45 -47 255 0
45 -47 -255 0
-45 47 -255 0
45 47 255 0
243 -244 256 0
-243 -244 -256 0
243 244 -256 0
-243 244 256 0
245 -246 257 0
-245 -246 -257 0
245 246 -257 0
-245 246 257 0
247 -248 258 0
-247 -248 -258 0
247 248 -258 0
-247 248 258 0
249 -250 259 0
-249 -250 -259 0
249 250 -259 0
-249 250 259 0
251 -252 260 0
-251 -252 -260 0
251 252 -260 0
-251 252 260 0
253 -254 261 0
-253 -254 -261 0
253 254 -261 0
-253 254 261 0
255 -256 262 0
-255 -256 -262 0
255 256 -262 0
-255 256 262 0
257 -258 263 0
-257 -258 -263 0
257 258 -263 0
-257 258 263 0
259 -260 264 0
-259 -260 -264 0
259 260 -264 0
-259 260 264 0
261 -262 265 0
-261 -262 -265 0
261 262 -265 0
-261 262 265 0
263 -264 266 0
-263 -264 -266 0
263 264 -266 0
-263 264 266 0
265 266 0
-265 -266 0
2 -3 267 0
-2 -3 -267 0
2 3 -267 0
-2 3 267 0
-5 7 268 0
5 7 -268 0
-5 -7 -268 0
5 -7 268 0
9 11 269 0
-9 11 -269 0
9 -11 -269 0
-9 -11 269 0
-14 15 270 0
14 15 -270 0
-14 -15 -270 0
14 -15 270 0
19 -21 271 0
-19 -21 -271 0
19 21 -271 0
-19 21 271 0
-23 25 272 0
23 25 -272 0
-23 -25 -272 0
23 -25 272 0
-27 -29 273 0
27 -29 -273 0
-27 29 -273 0
27 29 273 0
30 -32 274 0
-30 -32 -274 0
30 32 -274 0
-30 32 274 0
35 -39 275 0
-35 -39 -275 0
35 39 -275 0
-35 39 275 0
40 -43 276 0
-40 -43 -276 0
40 43 -276 0
-40 43 276 0
-44 -47 277 0
44 -47 -277 0
-44 47 -277 0
44 47 277 0
266 -267 278 0
-266 -267 -278 0
266 267 -278 0
-266 267 278 0
268 -269 279 0
-268 -269 -279 0
268 269 -279 0
-268 269 279 0
270 -271 280 0
-270 -271 -280 0
270 271 -280 0
-270 271 280 0
272 -273 281 0
-272 -273 -281 0
272 273 -281 0
-272 273 281 0
274 -275 282 0
-274 -275 -282 0
274 275 -282 0
-274 275 282 0
276 -277 283 0
-276 -277 -283 0
276 277 -283 0
-276 277 283 0
278 -279 284 0
-278 -279 -284 0
278 279 -284 0
-278 279 284 0
280 -281 285 0
-280 -281 -285 0
280 281 -285 0
-280 281 285 0
282 -283 286 0
-282 -283 -286 0
282 283 -286 0
-282 283 286 0
-284 -285 286 0
284 -285 -286 0
-284 285 -286 0
284 285 286 0
-1 -2 287 0
1 -2 -287 0
-1 2 -287 0
1 2 287 0
-5 6 288 0
5 6 -288 0
-5 -6 -288 0
5 -6 288 0
9 -10 289 0
-9 -10 -289 0
9 10 -289 0
-9 10 289 0
12 -13 290 0
-12 -13 -290 0
12 13 -290 0
-12 13 290 0
16 17 291 0
-16 17 -291 0
16 -17 -291 0
-16 -17 291 0
-21 -22 292 0
21 -22 -292 0
-21 22 -292 0
21 22 292 0
23 27 293 0
-23 27 -293 0
23 -27 -293 0
-23 -27 293 0
-29 31 294 0
29 31 -294 0
-29 -31 -294 0
29 -31 294 0
-40 41 295 0
40 41 -295 0
-40 -41 -295 0
40 -41 295 0
-42 -44 296 0
42 -44 -296 0
-42 44 -296 0
42 44 296 0
46 -47 297 0
-46 -47 -297 0
46 47 -297 0
-46 47 297 0
-48 49 298 0
48 49 -298 0
-48 -49 -298 0
48 -49 298 0
286 -287 299 0
-286 -287 -299 0
286 287 -299 0
-286 287 299 0
288 -289 300 0
-288 -289 -300 0
288 289 -300 0
-288 289 300 0
290 -291 301 0
-290 -291 -301 0
290 291 -301 0
-290 291 301 0
292 -293 302 0
-292 -293 -302 0
292 293 -302 0
-292 293 302 0
294 -295 303 0
-294 -295 -303 0
294 295 -303 0
-294 295 303 0
296 -297 304 0
-296 -297 -304 0
296 297 -304 0
-296 297 304 0
298 -299 305 0
-298 -299 -305 0
298 299 -305 0
-298 299 305 0
300 -301 306 0
-300 -301 -306 0
300 301 -306 0
-300 301 306 0
302 -303 307 0
-302 -303 -307 0
302 303 -307 0
-302 303 307 0
304 -305 308 0
-304 -305 -308 0
304 305 -308 0
-304 305 308 0
306 -307 309 0
-306 -307 -309 0
306 307 -309 0
-306 307 309 0
308 309 0
-308 -309 0
1 -2 310 0
-1 -2 -310 0
1 2 -310 0
-1 2 310 0
4 5 311 0
-4 5 -311 0
4 -5 -311 0
-4 -5 311 0
-10 -11 312 0
10 -11 -312 0
-10 11 -312 0
10 11 312 0
-22 25 313 0
22 25 -313 0
-22 -25 -313 0
22 -25 313 0
26 28 314 0
-26 28 -314 0
26 -28 -314 0
-26 -28 314 0
-30 32 315 0
30 32 -315 0
-30 -32 -315 0
30 -32 315 0
33 -36 316 0
-33 -36 -316 0
33 36 -316 0
-33 36 316 0
-37 38 317 0
37 38 -317 0
-37 -38 -317 0
37 -38 317 0
39 -43 318 0
-39 -43 -318 0
39 43 -318 0
-39 43 318 0
-45 47 319 0
45 47 -319 0
-45 -47 -319 0
45 -47 319 0
309 -310 320 0
-309 -310 -320 0
309 310 -320 0
-309 310 320 0
311 -312 321 0
-311 -312 -321 0
311 312 -321 0
-311 312 321 0
313 -314 322 0
-313 -314 -322 0
313 314 -322 0
-313 314 322 0
315 -316 323 0
-315 -316 -323 0
315 316 -323 0
-315 316 323 0
317 -318 324 0
-317 -318 -324 0
317 318 -324 0
-317 318 324 0
319 -320 325 0
-319 -320 -325 0
319 320 -325 0
-319 320 325 0
321 -322 326 0
-321 -322 -326 0
321 322 -326 0
-321 322 326 0
323 -324 327 0
-323 -324 -327 0
323 324 -327 0
-323 324 327 0
-325 -326 327 0
325 -326 -327 0
-325 326 -327 0
325 326 327 0
-1 -3 328 0
1 -3 -328 0
-1 3 -328 0
1 3 328 0
-6 -11 329 0
6 -11 -329 0
-6 11 -329 0
6 11 329 0
12 14 330 0
-12 14 -330 0
12 -14 -330 0
-12 -14 330 0
-18 -20 331 0
18 -20 -331 0
-18 20 -331 0
18 20 331 0
-22 24 332 0
22 24 -332 0
-22 -24 -332 0
22 -24 332 0
-25 27 333 0
25 27 -333 0
-25 -27 -333 0
25 -27 333 0
30 32 334 0
-30 32 -334 0
30 -32 -334 0
-30 -32 334 0
-38 39 335 0
38 39 -335 0
-38 -39 -335 0
38 -39 335 0
-42 45 336 0
42 45 -336 0
-42 -45 -336 0
42 -45 336 0
-46 -47 337 0
46 -47 -337 0
-46 47 -337 0
46 47 337 0
327 -328 338 0
-327 -328 -338 0
327 328 -338 0
-327 328 338 0
329 -330 339 0
-329 -330 -339 0
329 330 -339 0
-329 330 339 0
331 -332 340 0
-331 -332 -340 0
331 332 -340 0
-331 332 340 0
333 -334 341 0
-333 -334 -341 0
333 334 -341 0
-333 334 341 0
335 -336 342 0
-335 -336 -342 0
335 336 -342 0
-335 336 342 0
337 -338 343 0
-337 -338 -343 0
337 338 -343 0
-337 338 343 0
339 -340 344 0
-339 -340 -344 0
339 340 -344 0
-339 340 344 0
341 -342 345 0
-341 -342 -345 0
341 342 -345 0
-341 342 345 0
-343 -344 345 0
343 -344 -345 0
-343 344 -345 0
343 344 345 0
3 4 346 0
-3 4 -346 0
3 -4 -346 0
-3 -4 346 0
-5 8 347 0
5 8 -347 0
-5 -8 -347 0
5 -8 347 0
-10 -13 348 0
10 -13 -348 0
-10 13 -348 0
10 13 348 0
-15 16 349 0
15 16 -349 0
-15 -16 -349 0
15 -16 349 0
-17 18 350 0
17 18 -350 0
-17 -18 -350 0
17 -18 350 0
19 20 351 0
-19 20 -351 0
19 -20 -351 0
-19 -20 351 0
-22 27 352 0
22 27 -352 0
-22 -27 -352 0
22 -27 352 0
-28 29 353 0
28 29 -353 0
-28 -29 -353 0
28 -29 353 0
31 32 354 0
-31 32 -354 0
31 -32 -354 0
-31 -32 354 0
-33 -34 355 0
33 -34 -355 0
-33 34 -355 0
33 34 355 0
35 -38 356 0
-35 -38 -356 0
35 38 -356 0
-35 38 356 0
-39 -40 357 0
39 -40 -357 0
-39 40 -357 0
39 40 357 0
42 46 358 0
-42 46 -358 0
42 -46 -358 0
-42 -46 358 0
345 -346 359 0
-345 -346 -359 0
345 346 -359 0
-345 346 359 0
347 -348 360 0
-347 -348 -360 0
347 348 -360 0
-347 348 360 0
349 -350 361 0
-349 -350 -361 0
349 350 -361 0
-349 350 361 0
351 -352 362 0
-351 -352 -362 0
351 352 -362 0
-351 352 362 0
353 -354 363 0
-353 -354 -363 0
353 354 -363 0
-353 354 363 0
355 -356 364 0
-355 -356 -364 0
355 356 -364 0
-355 356 364 0
357 -358 365 0
-357 -358 -365 0
357 358 -365 0
-357 358 365 0
359 -360 366 0
-359 -360 -366 0
359 360 -366 0
-359 360 366 0
361 -362 367 0
-361 -362 -367 0
361 362 -367 0
-361 362 367 0
363 -364 368 0
-363 -364 -368 0
363 364 -368 0
-363 364 368 0
365 -366 369 0
-365 -366 -369 0
365 366 -369 0
-365 366 369 0
367 -368 370 0
-367 -368 -370 0
367 368 -370 0
-367 368 370 0
369 370 0
-369 -370 0
-5 -6 371 0
5 -6 -371 0
-5 6 -371 0
5 6 371 0
-12 -18 372 0
12 -18 -372 0
-12 18 -372 0
12 18 372 0
20 21 373 0
-20 21 -373 0
20 -21 -373 0
-20 -21 373 0
22 -23 374 0
-22 -23 -374 0
22 23 -374 0
-22 23 374 0
-24 -25 375 0
24 -25 -375 0
-24 25 -375 0
24 25 375 0
-26 29 376 0
26 29 -376 0
-26 -29 -376 0
26 -29 376 0
30 -31 377 0
-30 -31 -377 0
30 31 -377 0
-30 31 377 0
32 -33 378 0
-32 -33 -378 0
32 33 -378 0
-32 33 378 0
34 35 379 0
-34 35 -379 0
34 -35 -379 0
-34 -35 379 0
-36 37 380 0
36 37 -380 0
-36 -37 -380 0
36 -37 380 0
38 39 381 0
-38 39 -381 0
38 -39 -381 0
-38 -39 381 0
-41 42 382 0
41 42 -382 0
-41 -42 -382 0
41 -42 382 0
-45 46 383 0
45 46 -383 0
-45 -46 -383 0
45 -46 383 0
47 48 384 0
-47 48 -384 0
47 -48 -384 0
-47 -48 384 0
370 -371 385 0
-370 -371 -385 0
370 371 -385 0
-370 371 385 0
372 -373 386 0
-372 -373 -386 0
372 373 -386 0
-372 373 386 0
374 -375 387 0
-374 -375 -387 0
374 375 -387 0
-374 375 387 0
376 -377 388 0
-376 -377 -388 0
376 377 -388 0
-376 377 388 0
378 -379 389 0
-378 -379 -389 0
378 379 -389 0
-378 379 389 0
380 -381 390 0
-380 -381 -390 0
380 381 -390 0
-380 381 390 0
382 -383 391 0
-382 -383 -391 0
382 383 -391 0
-382 383 391 0
384 -385 392 0
-384 -385 -392 0
384 385 -392 0
-384 385 392 0
386 -387 393 0
-386 -387 -393 0
386 387 -393 0
-386 387 393 0
388 -389 394 0
-388 -389 -394 0
388 389 -394 0
-388 389 394 0
390 -391 395 0
-390 -391 -395 0
390 391 -395 0
-390 391 395 0
392 -393 396 0
-392 -393 -396 0
392 393 -396 0
-392 393 396 0
394 -395 397 0
-394 -395 -397 0
394 395 -397 0
-394 395 397 0
396 397 0
-396 -397 0
1 2 398 0
-1 2 -398 0
1 -2 -398 0
-1 -2 398 0
-3 4 399 0
3 4 -399 0
-3 -4 -399 0
3 -4 399 0
-9 -10 400 0
9 -10 -400 0
-9 10 -400 0
9 10 400 0
-11 -13 401 0
11 -13 -401 0
-11 13 -401 0
11 13 401 0
-15 -16 402 0
15 -16 -402 0
-15 16 -402 0
15 16 402 0
-18 20 403 0
18 20 -403 0
-18 -20 -403 0
18 -20 403 0
-22 -28 404 0
22 -28 -404 0
-22 28 -404 0
22 28 404 0
32 -33 405 0
-32 -33 -405 0
32 33 -405 0
-32 33 405 0
34 35 406 0
-34 35 -406 0
34 -35 -406 0
-34 -35 406 0
-36 -37 407 0
36 -37 -407 0
-36 37 -407 0
36 37 407 0
39 42 408 0
-39 42 -408 0
39 -42 -408 0
-39 -42 408 0
-45 -46 409 0
45 -46 -409 0
-45 46 -409 0
45 46 409 0
-47 48 410 0
47 48 -410 0
-47 -48 -410 0
47 -48 410 0
397 -398 411 0
-397 -398 -411 0
397 398 -411 0
-397 398 411 0
399 -400 412 0
-399 -400 -412 0
399 400 -412 0
-399 400 412 0
401 -402 413 0
-401 -402 -413 0
401 402 -413 0
-401 402 413 0
403 -404 414 0
-403 -404 -414 0
403 404 -414 0
-403 404 414 0
405 -406 415 0
-405 -406 -415 0
405 406 -415 0
-405 406 415 0
407 -408 416 0
-407 -408 -416 0
407 408 -416 0
-407 408 416 0
409 -410 417 0
-409 -410 -417 0
409 410 -417 0
-409 410 417 0
411 -412 418 0
-411 -412 -418 0
411 412 -418 0
-411 412 418 0
413 -414 419 0
-413 -414 -419 0
413 414 -419 0
-413 414 419 0
415 -416 420 0
-415 -416 -420 0
415 416 -420 0
-415 416 420 0
417 -418 421 0
-417 -418 -421 0
417 418 -421 0
-417 418 421 0
419 -420 422 0
-419 -420 -422 0
419 420 -422 0
-419 420 422 0
421 422 0
-421 -422 0
-2 7 423 0
2 7 -423 0
-2 -7 -423 0
2 -7 423 0
9 -10 424 0
-9 -10 -424 0
9 10 -424 0
-9 10 424 0
11 -12 425 0
-11 -12 -425 0
11 12 -425 0
-11 12 425 0
-15 -17 426 0
15 -17 -426 0
-15 17 -426 0
15 17 426 0
18 20 427 0
-18 20 -427 0
18 -20 -427 0
-18 -20 427 0
21 -22 428 0
-21 -22 -428 0
21 22 -428 0
-21 22 428 0
-24 25 429 0
24 25 -429 0
-24 -25 -429 0
24 -25 429 0
26 -29 430 0
-26 -29 -430 0
26 29 -430 0
-26 29 430 0
31 -32 431 0
-31 -32 -431 0
31 32 -431 0
-31 32 431 0
-38 -39 432 0
38 -39 -432 0
-38 39 -432 0
38 39 432 0
40 -42 433 0
-40 -42 -433 0
40 42 -433 0
-40 42 433 0
-44 45 434 0
44 45 -434 0
-44 -45 -434 0
44 -45 434 0
-48 49 435 0
48 49 -435 0
-48 -49 -435 0
48 -49 435 0
423 -424 436 0
-423 -424 -436 0
423 424 -436 0
-423 424 436 0
425 -426 437 0
-425 -426 -437 0
425 426 -437 0
-425 426 437 0
427 -428 438 0
-427 -428 -438 0
427 428 -438 0
-427 428 438 0
429 -430 439 0
-429 -430 -439 0
429 430 -439 0
-429 430 439 0
431 -432 440 0
-431 -432 -440 0
431 432 -440 0
-431 432 440 0
433 -434 441 0
-433 -434 -441 0
433 434 -441 0
-433 434 441 0
435 -436 442 0
-435 -436 -442 0
435 436 -442 0
-435 436 442 0
437 -438 443 0
-437 -438 -443 0
437 438 -443 0
-437 438 443 0
439 -440 444 0
-439 -440 -444 0
439 440 -444 0
-439 440 444 0
441 -442 445 0
-441 -442 -445 0
441 442 -445 0
-441 442 445 0
443 -444 446 0
-443 -444 -446 0
443 444 -446 0
-443 444 446 0
445 446 0
-445 -446 0
2 4 447 0
-2 4 -447 0
2 -4 -447 0
-2 -4 447 0
6 7 448 0
-6 7 -448 0
6 -7 -448 0
-6 -7 448 0
8 9 449 0
-8 9 -449 0
8 -9 -449 0
-8 -9 449 0
-10 -13 450 0
10 -13 -450 0
-10 13 -450 0
10 13 450 0
-14 -16 451 0
14 -16 -451 0
-14 16 -451 0
14 16 451 0
18 -21 452 0
-18 -21 -452 0
18 21 -452 0
-18 21 452 0
22 23 453 0
-22 23 -453 0
22 -23 -453 0
-22 -23 453 0
24 -25 454 0
-24 -25 -454 0
24 25 -454 0
-24 25 454 0
-26 27 455 0
26 27 -455 0
-26 -27 -455 0
26 -27 455 0
-30 34 456 0
30 34 -456 0
-30 -34 -456 0
30 -34 456 0
-39 40 457 0
39 40 -457 0
-39 -40 -457 0
39 -40 457 0
46 50 458 0
-46 50 -458 0
46 -50 -458 0
-46 -50 458 0
447 -448 459 0
-447 -448 -459 0
447 448 -459 0
-447 448 459 0
449 -450 460 0
-449 -450 -460 0
449 450 -460 0
-449 450 460 0
451 -452 461 0
-451 -452 -461 0
451 452 -461 0
-451 452 461 0
453 -454 462 0
-453 -454 -462 0
453 454 -462 0
-453 454 462 0
455 -456 463 0
-455 -456 -463 0
455 456 -463 0
-455 456 463 0
457 -458 464 0
-457 -458 -464 0
457 458 -464 0
-457 458 464 0
459 -460 465 0
-459 -460 -465 0
459 460 -465 0
-459 460 465 0
461 -462 466 0
-461 -462 -466 0
461 462 -466 0
-461 462 466 0
463 -464 467 0
-463 -464 -467 0
463 464 -467 0
-463 464 467 0
-465 -466 467 0
465 -466 -467 0
-465 466 -467 0
465 466 467 0
1 -2 468 0
-1 -2 -468 0
1 2 -468 0
-1 2 468 0
-4 -5 469 0
4 -5 -469 0
-4 5 -469 0
4 5 469 0
-6 8 470 0
6 8 -470 0
-6 -8 -470 0
6 -8 470 0
-9 12 471 0
9 12 -471 0
-9 -12 -471 0
9 -12 471 0
-15 -19 472 0
15 -19 -472 0
-15 19 -472 0
15 19 472 0
-20 29 473 0
20 29 -473 0
-20 -29 -473 0
20 -29 473 0
32 33 474 0
-32 33 -474 0
32 -33 -474 0
-32 -33 474 0
-36 -37 475 0
36 -37 -475 0
-36 37 -475 0
36 37 475 0
40 41 476 0
-40 41 -476 0
40 -41 -476 0
-40 -41 476 0
42 -45 477 0
-42 -45 -477 0
42 45 -477 0
-42 45 477 0
-46 -47 478 0
46 -47 -478 0
-46 47 -478 0
46 47 478 0
467 -468 479 0
-467 -468 -479 0
467 468 -479 0
-467 468 479 0
469 -470 480 0
-469 -470 -480 0
469 470 -480 0
-469 470 480 0
471 -472 481 0
-471 -472 -481 0
471 472 -481 0
-471 472 481 0
473 -474 482 0
-473 -474 -482 0
473 474 -482 0
-473 474 482 0
475 -476 483 0
-475 -476 -483 0
475 476 -483 0
-475 476 483 0
477 -478 484 0
-477 -478 -484 0
477 478 -484 0
-477 478 484 0
479 -480 485 0
-479 -480 -485 0
479 480 -485 0
-479 480 485 0
481 -482 486 0
-481 -482 -486 0
481 482 -486 0
-481 482 486 0
483 -484 487 0
-483 -484 -487 0
483 484 -487 0
-483 484 487 0
-485 -486 487 0
485 -486 -487 0
-485 486 -487 0
485 486 487 0
-12 488 0
-24 488 0
-12 -24 489 0
-23 488 0
-12 -23 489 0
-24 -23 489 0
-12 -24 -23 490 0
-22 491 0
-21 491 0
-22 -21 492 0
-20 491 0
-22 -20 492 0
-21 -20 492 0
-22 -21 -20 493 0
-488 494 0
-489 495 0
-490 496 0
-491 494 0
-492 495 0
-493 496 0
-488 -491 495 0
-488 -492 496 0
-488 -493 497 0
-489 -491 496 0
-489 -492 497 0
-489 -493 498 0
-490 -491 497 0
-490 -492 498 0
-490 -493 499 0
-19 500 0
-18 500 0
-19 -18 501 0
-17 500 0
-19 -17 501 0
-18 -17 501 0
-19 -18 -17 502 0
-16 503 0
-15 503 0
-16 -15 504 0
-14 503 0
-16 -14 504 0
-15 -14 504 0
-16 -15 -14 505 0
-500 506 0
-501 507 0
-502 508 0
-503 506 0
-504 507 0
-505 508 0
-500 -503 507 0
-500 -504 508 0
-500 -505 509 0
-501 -503 508 0
-501 -504 509 0
-501 -505 510 0
-502 -503 509 0
-502 -504 510 0
-502 -505 511 0
-494 512 0
-496 513 0
-498 514 0
-506 512 0
-508 513 0
-510 514 0
-494 -506 513 0
-494 -508 514 0
-494 -510 515 0
-496 -506 514 0
-496 -508 515 0
-496 -510 516 0
-498 -506 515 0
-498 -508 516 0
-498 -510 517 0
-495 518 0
-497 519 0
-499 520 0
-507 518 0
-509 519 0
-511 520 0
-495 -507 519 0
-495 -509 520 0
-495 -511 521 0
-497 -507 520 0
-497 -509 521 0
-497 -511 522 0
-499 -507 521 0
-499 -509 522 0
-499 -511 523 0
-513 524 0
-518 524 0
-513 -518 525 0
-514 526 0
-519 526 0
-514 -519 527 0
-515 528 0
-520 528 0
-515 -520 529 0
-516 530 0
-521 530 0
-516 -521 531 0
-517 532 0
-522 532 0
-517 -522 533 0
-13 534 0
-25 534 0
-13 -25 535 0
-11 534 0
-13 -11 535 0
-25 -11 535 0
-13 -25 -11 536 0
-10 537 0
-9 537 0
-10 -9 538 0
-8 537 0
-10 -8 538 0
-9 -8 538 0
-10 -9 -8 539 0
-534 540 0
-535 541 0
-536 542 0
-537 540 0
-538 541 0
-539 542 0
-534 -537 541 0
-534 -538 542 0
-534 -539 543 0
-535 -537 542 0
-535 -538 543 0
-535 -539 544 0
-536 -537 543 0
-536 -538 544 0
-536 -539 545 0
-7 546 0
-6 546 0
-7 -6 547 0
-5 546 0
-7 -5 547 0
-6 -5 547 0
-7 -6 -5 548 0
-4 549 0
-3 549 0
-4 -3 550 0
-2 549 0
-4 -2 550 0
-3 -2 550 0
-4 -3 -2 551 0
-546 552 0
-547 553 0
-548 554 0
-549 552 0
-550 553 0
-551 554 0
-546 -549 553 0
-546 -550 554 0
-546 -551 555 0
-547 -549 554 0
-547 -550 555 0
-547 -551 556 0
-548 -549 555 0
-548 -550 556 0
-548 -551 557 0
-540 558 0
-542 559 0
-544 560 0
-552 558 0
-554 559 0
-556 560 0
-540 -552 559 0
-540 -554 560 0
-540 -556 561 0
-542 -552 560 0
-542 -554 561 0
-542 -556 562 0
-544 -552 561 0
-544 -554 562 0
-544 -556 563 0
-541 564 0
-543 565 0
-545 566 0
-553 564 0
-555 565 0
-557 566 0
-541 -553 565 0
-541 -555 566 0
-541 -557 567 0
-543 -553 566 0
-543 -555 567 0
-543 -557 568 0
-545 -553 567 0
-545 -555 568 0
-545 -557 569 0
-559 570 0
-564 570 0
-559 -564 571 0
-560 572 0
-565 572 0
-560 -565 573 0
-561 574 0
-566 574 0
-561 -566 575 0
-562 576 0
-567 576 0
-562 -567 577 0
-563 578 0
-568 578 0
-563 -568 579 0
-1 580 0
-37 580 0
-1 -37 581 0
-49 580 0
-1 -49 581 0
-37 -49 581 0
-1 -37 -49 582 0
-48 583 0
-47 583 0
-48 -47 584 0
-46 583 0
-48 -46 584 0
-47 -46 584 0
-48 -47 -46 585 0
-580 586 0
-581 587 0
-582 588 0
-583 586 0
-584 587 0
-585 588 0
-580 -583 587 0
-580 -584 588 0
-580 -585 589 0
-581 -583 588 0
-581 -584 589 0
-581 -585 590 0
-582 -583 589 0
-582 -584 590 0
-582 -585 591 0
-45 592 0
-44 592 0
-45 -44 593 0
-43 592 0
-45 -43 593 0
-44 -43 593 0
-45 -44 -43 594 0
-42 595 0
-41 595 0
-42 -41 596 0
-40 595 0
-42 -40 596 0
-41 -40 596 0
-42 -41 -40 597 0
-592 598 0
-593 599 0
-594 600 0
-595 598 0
-596 599 0
-597 600 0
-592 -595 599 0
-592 -596 600 0
-592 -597 601 0
-593 -595 600 0
-593 -596 601 0
-593 -597 602 0
-594 -595 601 0
-594 -596 602 0
-594 -597 603 0
-586 604 0
-588 605 0
-590 606 0
-598 604 0
-600 605 0
-602 606 0
-586 -598 605 0
-586 -600 606 0
-586 -602 607 0
-588 -598 606 0
-588 -600 607 0
-588 -602 608 0
-590 -598 607 0
-590 -600 608 0
-590 -602 609 0
-587 610 0
-589 611 0
-591 612 0
-599 610 0
-601 611 0
-603 612 0
-587 -599 611 0
-587 -601 612 0
-587 -603 613 0
-589 -599 612 0
-589 -601 613 0
-589 -603 614 0
-591 -599 613 0
-591 -601 614 0
-591 -603 615 0
-605 616 0
-610 616 0
-605 -610 617 0
-606 618 0
-611 618 0
-606 -611 619 0
-607 620 0
-612 620 0
-607 -612 621 0
-608 622 0
-613 622 0
-608 -613 623 0
-609 624 0
-614 624 0
-609 -614 625 0
-39 626 0
-38 626 0
-39 -38 627 0
-50 626 0
-39 -50 627 0
-38 -50 627 0
-39 -38 -50 628 0
-36 629 0
-35 629 0
-36 -35 630 0
-34 629 0
-36 -34 630 0
-35 -34 630 0
-36 -35 -34 631 0
-626 632 0
-627 633 0
-628 634 0
-629 632 0
-630 633 0
-631 634 0
-626 -629 633 0
-626 -630 634 0
-626 -631 635 0
-627 -629 634 0
-627 -630 635 0
-627 -631 636 0
-628 -629 635 0
-628 -630 636 0
-628 -631 637 0
-33 638 0
-32 638 0
-33 -32 639 0
-31 638 0
-33 -31 639 0
-32 -31 639 0
-33 -32 -31 640 0
-30 641 0
-29 641 0
-30 -29 642 0
-28 643 0
-27 643 0
-28 -27 644 0
-26 643 0
-28 -26 644 0
-27 -26 644 0
-28 -27 -26 645 0
-641 646 0
-642 647 0
-643 646 0
-644 647 0
-645 648 0
-641 -643 647 0
-641 -644 648 0
-641 -645 649 0
-642 -643 648 0
-642 -644 649 0
-642 -645 650 0
-638 651 0
-639 652 0
-640 653 0
-646 651 0
-647 652 0
-648 653 0
-649 654 0
-650 655 0
-638 -646 652 0
-638 -647 653 0
-638 -648 654 0
-638 -649 655 0
-638 -650 656 0
-639 -646 653 0
-639 -647 654 0
-639 -648 655 0
-639 -649 656 0
-639 -650 657 0
-640 -646 654 0
-640 -647 655 0
-640 -648 656 0
-640 -649 657 0
-640 -650 658 0
-632 659 0
-634 660 0
-636 661 0
-651 659 0
-653 660 0
-655 661 0
-657 662 0
-632 -651 660 0
-632 -653 661 0
-632 -655 662 0
-632 -657 663 0
-634 -651 661 0
-634 -653 662 0
-634 -655 663 0
-634 -657 664 0
-636 -651 662 0
-636 -653 663 0
-636 -655 664 0
-636 -657 665 0
-633 666 0
-635 667 0
-637 668 0
-652 666 0
-654 667 0
-656 668 0
-658 669 0
-633 -652 667 0
-633 -654 668 0
-633 -656 669 0
-633 -658 670 0
-635 -652 668 0
-635 -654 669 0
-635 -656 670 0
-635 -658 671 0
-637 -652 669 0
-637 -654 670 0
-637 -656 671 0
-637 -658 672 0
-660 673 0
-666 673 0
-660 -666 674 0
-661 675 0
-667 675 0
-661 -667 676 0
-662 677 0
-668 677 0
-662 -668 678 0
-663 679 0
-669 679 0
-663 -669 680 0
-664 681 0
-670 681 0
-664 -670 682 0
-665 683 0
-671 683 0
-665 -671 684 0
-604 685 0
-619 686 0
-623 687 0
-659 685 0
-676 686 0
-680 687 0
-684 688 0
-604 -659 686 0
-604 -676 687 0
-604 -680 688 0
-604 -684 689 0
-619 -659 687 0
-619 -676 688 0
-619 -680 689 0
-623 -659 688 0
-623 -676 689 0
-617 690 0
-621 691 0
-625 692 0
-674 690 0
-678 691 0
-682 692 0
-617 -674 691 0
-617 -678 692 0
-617 -682 693 0
-621 -674 692 0
-621 -678 693 0
-625 -674 693 0
-686 694 0
-690 694 0
-686 -690 695 0
-687 696 0
-691 696 0
-687 -691 697 0
-688 698 0
-692 698 0
-688 -692 699 0
-689 700 0
-693 700 0
-689 -693 701 0
-616 702 0
-620 703 0
-624 704 0
-673 702 0
-677 703 0
-681 704 0
-672 705 0
-616 -673 703 0
-616 -677 704 0
-616 -681 705 0
-616 -672 706 0
-620 -673 704 0
-620 -677 705 0
-620 -681 706 0
-624 -673 705 0
-624 -677 706 0
-618 707 0
-622 708 0
-615 709 0
-675 707 0
-679 708 0
-683 709 0
-618 -675 708 0
-618 -679 709 0
-618 -683 710 0
-622 -675 709 0
-622 -679 710 0
-615 -675 710 0
-703 711 0
-707 711 0
-703 -707 712 0
-704 713 0
-708 713 0
-704 -708 714 0
-705 715 0
-709 715 0
-705 -709 716 0
-706 717 0
-710 717 0
-694 718 0
-702 718 0
-694 -702 719 0
-695 720 0
-711 720 0
-695 -711 721 0
-696 722 0
-712 722 0
-696 -712 723 0
-697 724 0
-713 724 0
-697 -713 725 0
-698 726 0
-714 726 0
-698 -714 727 0
-699 728 0
-715 728 0
-699 -715 729 0
-700 730 0
-716 730 0
-700 -716 731 0
-701 732 0
-717 732 0
-558 733 0
-573 734 0
-577 735 0
-685 733 0
-721 734 0
-725 735 0
-729 736 0
-558 -685 734 0
-558 -721 735 0
-558 -725 736 0
-558 -729 737 0
-573 -685 735 0
-573 -721 736 0
-573 -725 737 0
-577 -685 736 0
-577 -721 737 0
-571 738 0
-575 739 0
-579 740 0
-719 738 0
-723 739 0
-727 740 0
-731 741 0
-571 -719 739 0
-571 -723 740 0
-571 -727 741 0
-575 -719 740 0
-575 -723 741 0
-579 -719 741 0
-734 742 0
-738 742 0
-734 -738 743 0
-735 744 0
-739 744 0
-735 -739 745 0
-736 746 0
-740 746 0
-736 -740 747 0
-737 748 0
-741 748 0
-737 -741 749 0
-570 750 0
-574 751 0
-578 752 0
-718 750 0
-722 751 0
-726 752 0
-730 753 0
-570 -718 751 0
-570 -722 752 0
-570 -726 753 0
-570 -730 754 0
-574 -718 752 0
-574 -722 753 0
-574 -726 754 0
-578 -718 753 0
-578 -722 754 0
-572 755 0
-576 756 0
-569 757 0
-720 755 0
-724 756 0
-728 757 0
-732 758 0
-572 -720 756 0
-572 -724 757 0
-572 -728 758 0
-576 -720 757 0
-576 -724 758 0
-569 -720 758 0
-751 759 0
-755 759 0
-751 -755 760 0
-752 761 0
-756 761 0
-752 -756 762 0
-753 763 0
-757 763 0
-753 -757 764 0
-754 765 0
-758 765 0
-742 766 0
-750 766 0
-742 -750 767 0
-743 768 0
-759 768 0
-743 -759 769 0
-744 770 0
-760 770 0
-744 -760 771 0
-745 772 0
-761 772 0
-745 -761 773 0
-746 774 0
-762 774 0
-746 -762 775 0
-747 776 0
-763 776 0
-747 -763 777 0
-748 778 0
-764 778 0
-748 -764 779 0
-749 780 0
-765 780 0
-512 781 0
-527 782 0
-531 783 0
-733 781 0
-769 782 0
-773 783 0
-777 784 0
-512 -733 782 0
-512 -769 783 0
-512 -773 784 0
-512 -777 785 0
-527 -733 783 0
-527 -769 784 0
-527 -773 785 0
-531 -733 784 0
-531 -769 785 0
-525 786 0
-529 787 0
-533 788 0
-767 786 0
-771 787 0
-775 788 0
-779 789 0
-525 -767 787 0
-525 -771 788 0
-525 -775 789 0
-529 -767 788 0
-529 -771 789 0
-533 -767 789 0
-782 790 0
-786 790 0
-782 -786 791 0
-783 792 0
-787 792 0
-783 -787 793 0
-784 794 0
-788 794 0
-784 -788 795 0
-785 796 0
-789 796 0
-785 -789 797 0
-524 798 0
-528 799 0
-532 800 0
-766 798 0
-770 799 0
-774 800 0
-778 801 0
-524 -766 799 0
-524 -770 800 0
-524 -774 801 0
-524 -778 802 0
-528 -766 800 0
-528 -770 801 0
-528 -774 802 0
-532 -766 801 0
-532 -770 802 0
-526 803 0
-530 804 0
-523 805 0
-768 803 0
-772 804 0
-776 805 0
-780 806 0
-526 -768 804 0
-526 -772 805 0
-526 -776 806 0
-530 -768 805 0
-530 -772 806 0
-523 -768 806 0
-799 807 0
-803 807 0
-799 -803 808 0
-800 809 0
-804 809 0
-800 -804 810 0
-801 811 0
-805 811 0
-801 -805 812 0
-802 813 0
-806 813 0
-790 814 0
-798 814 0
-790 -798 815 0
-791 816 0
-807 816 0
-791 -807 817 0
-792 818 0
-808 818 0
-792 -808 819 0
-793 820 0
-809 820 0
-793 -809 821 0
-794 822 0
-810 822 0
-794 -810 823 0
-795 824 0
-811 824 0
-795 -811 825 0
-796 826 0
-812 826 0
-796 -812 827 0
-797 828 0
-813 828 0
-828 0
